; PUSH 0x00 DUP1 DUP3 LT => PUSH 0x00 DUP1
(set-option :produce-proofs true)
; 
(set-info :status unknown)
(declare-fun storage_t ((_ BitVec 256) Int (_ BitVec 256)) (_ BitVec 256))
(declare-fun storage_s ((_ BitVec 256) Int (_ BitVec 256)) (_ BitVec 256))
(declare-fun exc_halt_t (Int) Bool)
(declare-fun exc_halt_s (Int) Bool)
(declare-fun sc_t (Int) (_ BitVec 6))
(declare-fun stack_t ((_ BitVec 256) Int (_ BitVec 6)) (_ BitVec 256))
(declare-fun stack_s ((_ BitVec 256) Int (_ BitVec 6)) (_ BitVec 256))
(declare-fun sc_s (Int) (_ BitVec 6))
(declare-fun used_gas_t ((_ BitVec 256) Int) Int)
(declare-fun used_gas_s ((_ BitVec 256) Int) Int)
(assert
 (exists ((x_0 (_ BitVec 256)) )(let (($x5863 (forall ((w (_ BitVec 256)) )(let ((?x5272 (storage_t x_0 2 w)))
 (let ((?x5573 (storage_s x_0 4 w)))
 (= ?x5573 ?x5272))))
 ))
 (let (($x9181 (exc_halt_t 2)))
 (let (($x3743 (exc_halt_s 4)))
 (let (($x6746 (= $x3743 $x9181)))
 (let (($x8226 (forall ((n (_ BitVec 6)) )(let ((?x11629 (stack_t x_0 2 n)))
 (let ((?x2067 (stack_s x_0 4 n)))
 (let (($x2637 (= ?x2067 ?x11629)))
 (or $x2637 (bvsle (sc_t 2) n))))))
 ))
 (let ((?x6602 (sc_t 2)))
 (let ((?x500 (sc_s 4)))
 (let (($x6770 (= ?x500 ?x6602)))
 (let ((?x8001 (used_gas_t x_0 0)))
 (let ((?x2279 (used_gas_s x_0 0)))
 (let (($x5967 (= ?x2279 ?x8001)))
 (let (($x4083 (forall ((w (_ BitVec 256)) )(let ((?x8567 (storage_t x_0 0 w)))
 (let ((?x9911 (storage_s x_0 0 w)))
 (= ?x9911 ?x8567))))
 ))
 (let (($x56 (exc_halt_t 0)))
 (let (($x57 (exc_halt_s 0)))
 (let (($x58 (= $x57 $x56)))
 (let (($x1217 (forall ((n (_ BitVec 6)) )(let ((?x8000 (stack_t x_0 0 n)))
 (let ((?x1215 (stack_s x_0 0 n)))
 (let (($x9199 (= ?x1215 ?x8000)))
 (let ((?x63 (sc_t 0)))
 (let (($x632 (bvsle ?x63 n)))
 (or $x632 $x9199)))))))
 ))
 (let ((?x63 (sc_t 0)))
 (let ((?x72 (sc_s 0)))
 (let (($x73 (= ?x72 ?x63)))
 (let (($x5011 (exc_halt_t 1)))
 (let (($x3855 (not (bvsle (_ bv0 6) (bvadd (_ bv63 6) (sc_t 1))))))
 (let (($x7850 (or $x3855 $x5011 (not (= ((_ extract 6 6) (bvadd (_ bv1 7) (concat (_ bv0 1) (sc_t 1)))) (_ bv0 1))))))
 (let (($x2145 (forall ((w (_ BitVec 256)) )(let ((?x11455 (storage_t x_0 1 w)))
 (let ((?x5272 (storage_t x_0 2 w)))
 (= ?x5272 ?x11455))))
 ))
 (let (($x9824 (forall ((n (_ BitVec 6)) )(let ((?x6377 (sc_t 1)))
 (let ((?x3243 (bvadd (_ bv63 6) ?x6377)))
 (let (($x11781 (bvsle ?x3243 n)))
 (or (= (stack_t x_0 2 n) (stack_t x_0 1 n)) $x11781)))))
 ))
 (let ((?x6377 (sc_t 1)))
 (let ((?x3243 (bvadd (_ bv63 6) ?x6377)))
 (let ((?x6973 (stack_t x_0 1 ?x3243)))
 (let (($x7243 (= $x5011 (or $x56 (not (= ((_ extract 6 6) (bvadd (_ bv1 7) (concat (_ bv0 1) ?x63))) (_ bv0 1)))))))
 (let (($x7390 (forall ((w (_ BitVec 256)) )(let ((?x8567 (storage_t x_0 0 w)))
 (let ((?x11455 (storage_t x_0 1 w)))
 (= ?x11455 ?x8567))))
 ))
 (let (($x2486 (forall ((n (_ BitVec 6)) )(let ((?x63 (sc_t 0)))
 (let (($x632 (bvsle ?x63 n)))
 (or $x632 (= (stack_t x_0 1 n) (stack_t x_0 0 n))))))
 ))
 (let (($x2272 (= $x3743 (or (exc_halt_s 3) (not (bvsle (_ bv0 6) (bvadd (_ bv62 6) (sc_s 3))))))))
 (let (($x639 (forall ((w (_ BitVec 256)) )(let ((?x11022 (storage_s x_0 3 w)))
 (let ((?x5573 (storage_s x_0 4 w)))
 (= ?x5573 ?x11022))))
 ))
 (let (($x9329 (forall ((n (_ BitVec 6)) )(or (= (stack_s x_0 4 n) (stack_s x_0 3 n)) (bvsle (bvadd (_ bv62 6) (sc_s 3)) n)))
 ))
 (let ((?x1974 (sc_s 3)))
 (let ((?x2640 (bvadd (_ bv63 6) ?x1974)))
 (let (($x3965 (= ?x500 ?x2640)))
 (let ((?x6568 (stack_s x_0 3 ?x2640)))
 (let (($x4728 (= (stack_s x_0 4 (bvadd (_ bv63 6) ?x500)) (ite (bvule (stack_s x_0 3 (bvadd (_ bv62 6) ?x1974)) ?x6568) (_ bv0 256) (_ bv1 256)))))
 (let (($x3200 (exc_halt_s 2)))
 (let (($x4072 (or (not (bvsle (_ bv0 6) (bvadd (_ bv61 6) (sc_s 2)))) $x3200 (not (= ((_ extract 6 6) (bvadd (_ bv1 7) (concat (_ bv0 1) (sc_s 2)))) (_ bv0 1))))))
 (let (($x8780 (exc_halt_s 3)))
 (let (($x2458 (forall ((w (_ BitVec 256)) )(let ((?x7597 (storage_s x_0 2 w)))
 (let ((?x11022 (storage_s x_0 3 w)))
 (= ?x11022 ?x7597))))
 ))
 (let (($x7006 (forall ((n (_ BitVec 6)) )(or (= (stack_s x_0 3 n) (stack_s x_0 2 n)) (bvsle (bvadd (_ bv61 6) (sc_s 2)) n)))
 ))
 (let ((?x2620 (sc_s 2)))
 (let ((?x5957 (bvadd (_ bv63 6) ?x2620)))
 (let ((?x3280 (stack_s x_0 2 ?x5957)))
 (let (($x9667 (= (stack_s x_0 3 (bvadd (_ bv62 6) ?x2620)) (stack_s x_0 2 (bvadd (_ bv62 6) ?x2620)))))
 (let ((?x9396 (bvadd (_ bv61 6) ?x2620)))
 (let ((?x2438 (stack_s x_0 2 ?x9396)))
 (let (($x10558 (exc_halt_s 1)))
 (let (($x2707 (or (not (bvsle (_ bv0 6) (bvadd (_ bv63 6) (sc_s 1)))) (not (= ((_ extract 6 6) (bvadd (_ bv1 7) (concat (_ bv0 1) (sc_s 1)))) (_ bv0 1))) $x10558)))
 (let (($x8898 (forall ((w (_ BitVec 256)) )(let ((?x5585 (storage_s x_0 1 w)))
 (let ((?x7597 (storage_s x_0 2 w)))
 (= ?x7597 ?x5585))))
 ))
 (let (($x9726 (forall ((n (_ BitVec 6)) )(or (bvsle (bvadd (_ bv63 6) (sc_s 1)) n) (= (stack_s x_0 2 n) (stack_s x_0 1 n))))
 ))
 (let ((?x154 (sc_s 1)))
 (let ((?x8586 (bvadd (_ bv63 6) ?x154)))
 (let ((?x5666 (stack_s x_0 1 ?x8586)))
 (let (($x5896 (= $x10558 (or $x57 (not (= ((_ extract 6 6) (bvadd (_ bv1 7) (concat (_ bv0 1) ?x72))) (_ bv0 1)))))))
 (let (($x6776 (forall ((w (_ BitVec 256)) )(let ((?x9911 (storage_s x_0 0 w)))
 (let ((?x5585 (storage_s x_0 1 w)))
 (= ?x5585 ?x9911))))
 ))
 (let (($x5177 (forall ((n (_ BitVec 6)) )(or (= (stack_s x_0 1 n) (stack_s x_0 0 n)) (bvsle (sc_s 0) n)))
 ))
 (let (($x10620 (forall ((w (_ BitVec 256)) )(let ((?x9911 (storage_s x_0 0 w)))
 (= ?x9911 (_ bv0 256))))
 ))
 (let (($x240 (= ?x2279 0)))
 (let (($x10917 (not $x57)))
 (let (($x10464 (= (stack_s x_0 0 (_ bv0 6)) x_0)))
 (let (($x87 (= ?x72 (_ bv1 6))))
 (and $x87 $x10464 $x10917 $x240 $x10620 (= (stack_s x_0 1 ?x72) (_ bv0 256)) (= (used_gas_s x_0 1) (+ 3 ?x2279)) (= ?x154 (bvadd (_ bv1 6) ?x72)) $x5177 $x6776 $x5896 (= ?x3280 ?x5666) (= (stack_s x_0 2 ?x8586) ?x5666) (= (used_gas_s x_0 2) (+ 3 (used_gas_s x_0 1))) (= ?x2620 (bvadd (_ bv1 6) ?x154)) $x9726 $x8898 (= $x3200 $x2707) (= ?x6568 ?x2438) (= (stack_s x_0 3 ?x9396) ?x2438) $x9667 (= (stack_s x_0 3 ?x5957) ?x3280) (= (used_gas_s x_0 3) (+ 3 (used_gas_s x_0 2))) (= ?x1974 (bvadd (_ bv1 6) ?x2620)) $x7006 $x2458 (= $x8780 $x4072) $x4728 (= (used_gas_s x_0 4) (+ 3 (used_gas_s x_0 3))) $x3965 $x9329 $x639 $x2272 (= (stack_t x_0 1 ?x63) (_ bv0 256)) (= (used_gas_t x_0 1) (+ 3 ?x8001)) (= ?x6377 (bvadd (_ bv1 6) ?x63)) $x2486 $x7390 $x7243 (= (stack_t x_0 2 (bvadd (_ bv63 6) ?x6602)) ?x6973) (= (stack_t x_0 2 ?x3243) ?x6973) (= (used_gas_t x_0 2) (+ 3 (used_gas_t x_0 1))) (= ?x6602 (bvadd (_ bv1 6) ?x6377)) $x9824 $x2145 (= $x9181 $x7850) $x73 $x1217 $x58 $x4083 $x5967 (not (and $x6770 $x8226 $x6746 $x5863))))))))))))))))))))))))))))))))))))))))))))))))))))))))))))))))))))
 )
(check-sat)
(get-proof)
